<number of tasks>
35

<cycle time>
54

<task times>
1 29
2 3
3 5
4 22
5 6
6 14
7 2
8 5
9 22
10 30
11 23
12 30
13 23
14 2
15 19
16 29
17 2
18 2
19 19
20 29
21 6
22 10
23 16
24 23
25 5
26 5
27 5
28 40
29 2
30 5
31 5
32 1
33 40
34 2
35 2

<precedence relations>
1,2
1,5
1,10
1,12
2,3
3,4
4,11
5,6
6,7
6,8
7,14
7,18
8,9
9,13
10,14
11,28
11,33
12,18
13,28
13,33
14,15
15,16
16,21
17,20
18,19
19,20
20,21
21,22
21,25
21,30
22,23
23,24
24,27
25,26
26,27
27,28
27,33
27,34
28,29
30,31
31,32
32,33
33,35

<setup times forward>
1,2:4
1,10:4
1,12:2
2,3:5
2,5:4
2,6:4
2,7:4
2,8:5
2,9:5
2,12:2
2,13:2
2,16:3
2,17:4
2,18:3
2,19:6
2,20:6
2,21:6
2,22:4
2,23:4
2,24:4
2,25:4
2,26:7
2,27:7
2,30:1
2,31:1
2,32:1
2,34:7
3,5:1
3,6:1
3,7:1
3,10:5
3,12:3
3,13:3
3,14:5
3,15:5
3,16:2
3,17:1
3,18:2
3,19:1
3,20:1
3,21:1
3,22:1
3,23:1
3,24:1
3,25:1
3,26:2
3,27:2
3,30:4
3,31:4
3,32:4
3,34:2
4,5:1
4,6:1
4,7:1
4,10:5
4,11:2
4,12:3
4,13:3
4,14:5
4,15:5
4,16:2
4,17:1
4,18:2
4,19:1
4,20:1
4,21:1
4,22:1
4,23:1
4,24:1
4,25:1
4,26:2
4,27:2
4,30:4
4,31:4
4,32:4
4,34:2
5,2:4
5,3:1
5,4:1
5,10:4
5,11:1
5,12:2
6,2:4
6,3:1
6,4:1
6,8:1
6,10:4
6,11:1
6,12:2
7,2:4
7,3:1
7,4:1
7,8:1
7,9:1
7,10:4
7,11:1
7,12:2
7,13:2
7,14:4
7,18:1
8,2:5
8,7:1
8,10:5
8,11:2
8,12:3
8,14:5
8,15:5
8,16:2
8,17:1
8,18:2
8,19:1
8,20:1
8,21:1
8,22:1
8,23:1
8,24:1
8,25:1
8,26:2
8,27:2
8,30:4
8,31:4
8,32:4
8,34:2
9,2:5
9,7:1
9,10:5
9,11:2
9,12:3
9,13:3
9,14:5
9,15:5
9,16:2
9,17:1
9,18:2
9,19:1
9,20:1
9,21:1
9,22:1
9,23:1
9,24:1
9,25:1
9,26:2
9,27:2
9,30:4
9,31:4
9,32:4
9,34:2
10,3:5
10,4:5
10,5:4
10,6:4
10,7:4
10,8:5
10,9:5
10,11:3
10,12:2
10,13:2
10,17:4
10,18:3
10,19:6
10,20:6
11,5:1
11,6:1
11,7:1
11,8:2
11,9:2
11,10:3
11,12:1
11,13:1
11,14:3
11,15:3
11,17:1
11,19:3
11,20:3
11,21:3
11,22:1
11,23:1
11,24:1
11,25:1
11,26:4
11,27:4
11,28:4
11,30:2
11,31:2
11,32:2
11,33:2
11,34:4
12,2:2
12,3:3
12,4:3
12,5:2
12,6:2
12,7:2
12,8:3
12,9:3
12,10:2
12,11:1
12,14:2
12,15:2
12,16:1
12,17:2
12,18:1
13,2:2
13,3:3
13,4:3
13,7:2
13,10:2
13,11:1
13,14:2
13,15:2
13,16:1
13,17:2
13,18:1
13,19:4
13,20:4
13,21:4
13,22:2
13,23:2
13,24:2
13,25:2
13,26:5
13,27:5
13,28:5
13,30:1
13,31:1
13,32:1
13,33:1
13,34:5
14,3:5
14,4:5
14,8:5
14,9:5
14,11:3
14,12:2
14,13:2
14,17:4
14,18:3
14,19:6
14,20:6
15,3:5
15,4:5
15,8:5
15,9:5
15,11:3
15,12:2
15,13:2
15,16:3
15,17:4
15,18:3
15,19:6
15,20:6
16,2:3
16,3:2
16,4:2
16,8:2
16,9:2
16,12:1
16,13:1
16,17:1
16,19:3
16,20:3
16,21:3
17,2:4
17,3:1
17,4:1
17,8:1
17,9:1
17,10:4
17,11:1
17,12:2
17,13:2
17,14:4
17,15:4
17,16:1
17,18:1
17,19:2
17,20:2
18,2:3
18,3:2
18,4:2
18,8:2
18,9:2
18,10:3
18,13:1
18,14:3
18,15:3
18,17:1
18,19:3
19,2:6
19,3:1
19,4:1
19,8:1
19,9:1
19,10:6
19,11:3
19,13:4
19,14:6
19,15:6
19,16:3
19,17:2
20,2:6
20,3:1
20,4:1
20,8:1
20,9:1
20,10:6
20,11:3
20,13:4
20,14:6
20,15:6
20,16:3
21,2:6
21,3:1
21,4:1
21,8:1
21,9:1
21,11:3
21,13:4
21,22:2
21,25:2
21,30:5
22,2:4
22,3:1
22,4:1
22,8:1
22,9:1
22,11:1
22,13:2
22,26:3
22,30:3
22,31:3
22,32:3
23,2:4
23,3:1
23,4:1
23,8:1
23,9:1
23,11:1
23,13:2
23,26:3
23,30:3
23,31:3
23,32:3
24,2:4
24,3:1
24,4:1
24,8:1
24,9:1
24,11:1
24,13:2
24,26:3
24,27:3
24,30:3
24,31:3
24,32:3
25,2:4
25,3:1
25,4:1
25,8:1
25,9:1
25,11:1
25,13:2
25,26:3
25,30:3
25,31:3
25,32:3
26,2:7
26,3:2
26,4:2
26,8:2
26,9:2
26,11:4
26,13:5
26,22:3
26,23:3
26,24:3
26,30:6
26,31:6
26,32:6
27,2:7
27,3:2
27,4:2
27,8:2
27,9:2
27,11:4
27,13:5
27,30:6
27,31:6
27,32:6
27,33:6
28,30:6
28,31:6
28,32:6
28,33:6
28,35:6
29,30:6
29,31:6
29,32:6
29,33:6
29,35:6
30,2:1
30,3:4
30,4:4
30,8:4
30,9:4
30,11:2
30,13:1
30,22:3
30,23:3
30,24:3
30,25:3
30,26:6
30,27:6
30,28:6
30,29:6
30,34:6
31,2:1
31,3:4
31,4:4
31,8:4
31,9:4
31,11:2
31,13:1
31,22:3
31,23:3
31,24:3
31,25:3
31,26:6
31,27:6
31,28:6
31,29:6
31,34:6
32,2:1
32,3:4
32,4:4
32,8:4
32,9:4
32,11:2
32,13:1
32,22:3
32,23:3
32,24:3
32,25:3
32,26:6
32,27:6
32,28:6
32,29:6
32,34:6
33,28:6
33,29:6
33,34:6
34,2:7
34,3:2
34,4:2
34,8:2
34,9:2
34,11:4
34,13:5
34,30:6
34,31:6
34,32:6
34,33:6
34,35:6
35,28:6
35,29:6
35,34:6

<setup times backward>
2,1:4
2,5:4
2,6:4
2,7:4
2,8:5
2,9:5
2,12:2
2,13:2
2,16:3
2,17:4
2,18:3
2,19:6
2,20:6
2,21:6
2,22:4
2,23:4
2,24:4
2,25:4
2,26:7
2,27:7
2,30:1
2,31:1
2,32:1
2,34:7
3,19:1
3,20:1
3,21:1
3,26:2
3,27:2
3,34:2
4,19:1
4,20:1
4,21:1
4,26:2
4,27:2
4,34:2
5,3:1
5,4:1
6,3:1
6,4:1
7,3:1
7,4:1
7,8:1
7,9:1
8,19:1
8,20:1
8,21:1
8,26:2
8,27:2
8,34:2
9,19:1
9,20:1
9,21:1
9,26:2
9,27:2
9,34:2
10,1:4
10,3:5
10,4:5
10,5:4
10,6:4
10,7:4
10,8:5
10,9:5
10,11:3
10,12:2
10,13:2
10,17:4
10,18:3
10,19:6
10,20:6
11,1:1
11,3:2
11,4:2
11,5:1
11,6:1
11,7:1
11,8:2
11,9:2
11,17:1
11,19:3
11,20:3
11,21:3
11,22:1
11,23:1
11,24:1
11,25:1
11,26:4
11,27:4
11,34:4
12,1:2
12,3:3
12,4:3
12,5:2
12,6:2
12,7:2
12,8:3
12,9:3
12,11:1
12,16:1
12,17:2
13,1:2
13,3:3
13,4:3
13,5:2
13,6:2
13,7:2
13,8:3
13,9:3
13,11:1
13,16:1
13,17:2
13,18:1
13,19:4
13,20:4
13,21:4
13,22:2
13,23:2
13,24:2
13,25:2
13,26:5
13,27:5
13,34:5
14,1:4
14,3:5
14,4:5
14,5:4
14,6:4
14,7:4
14,8:5
14,9:5
14,11:3
14,12:2
14,13:2
14,17:4
14,18:3
14,19:6
14,20:6
15,1:4
15,3:5
15,4:5
15,5:4
15,6:4
15,7:4
15,8:5
15,9:5
15,11:3
15,12:2
15,13:2
15,17:4
15,18:3
15,19:6
15,20:6
16,1:1
16,3:2
16,4:2
16,5:1
16,6:1
16,7:1
16,8:2
16,9:2
16,17:1
16,19:3
16,20:3
17,3:1
17,4:1
17,8:1
17,9:1
17,19:2
18,1:1
18,3:2
18,4:2
18,5:1
18,6:1
18,7:1
18,8:2
18,9:2
18,17:1
22,3:1
22,4:1
22,8:1
22,9:1
22,19:2
22,20:2
22,21:2
22,26:3
23,3:1
23,4:1
23,8:1
23,9:1
23,19:2
23,20:2
23,21:2
23,26:3
24,3:1
24,4:1
24,8:1
24,9:1
24,19:2
24,20:2
24,21:2
24,26:3
25,3:1
25,4:1
25,8:1
25,9:1
25,19:2
25,20:2
25,21:2
30,1:3
30,3:4
30,4:4
30,5:3
30,6:3
30,7:3
30,8:4
30,9:4
30,11:2
30,12:1
30,13:1
30,16:2
30,17:3
30,18:2
30,19:5
30,20:5
30,21:5
30,22:3
30,23:3
30,24:3
30,25:3
30,26:6
30,27:6
30,28:6
30,29:6
30,34:6
31,1:3
31,3:4
31,4:4
31,5:3
31,6:3
31,7:3
31,8:4
31,9:4
31,11:2
31,12:1
31,13:1
31,16:2
31,17:3
31,18:2
31,19:5
31,20:5
31,21:5
31,22:3
31,23:3
31,24:3
31,25:3
31,26:6
31,27:6
31,28:6
31,29:6
31,34:6
32,1:3
32,3:4
32,4:4
32,5:3
32,6:3
32,7:3
32,8:4
32,9:4
32,11:2
32,12:1
32,13:1
32,16:2
32,17:3
32,18:2
32,19:5
32,20:5
32,21:5
32,22:3
32,23:3
32,24:3
32,25:3
32,26:6
32,27:6
32,28:6
32,29:6
32,34:6
33,1:3
33,3:4
33,4:4
33,5:3
33,6:3
33,7:3
33,8:4
33,9:4
33,11:2
33,12:1
33,13:1
33,16:2
33,17:3
33,18:2
33,19:5
33,20:5
33,21:5
33,22:3
33,23:3
33,24:3
33,25:3
33,26:6
33,27:6
33,28:6
33,29:6
33,34:6
35,1:3
35,3:4
35,4:4
35,5:3
35,6:3
35,7:3
35,8:4
35,9:4
35,11:2
35,12:1
35,13:1
35,16:2
35,17:3
35,18:2
35,19:5
35,20:5
35,21:5
35,22:3
35,23:3
35,24:3
35,25:3
35,26:6
35,27:6
35,28:6
35,29:6
35,34:6

<end>

<optimal SALBP-1 value>
9


<rand seed>
467321153

